;  time  = 289.6339256763458
;  chars = 1150
;  score = 0.3887286800193873
(set-logic QF_FP)
(declare-const x0 (_ FloatingPoint 8 24))
(declare-const x1 (_ FloatingPoint 8 24))
(declare-const x2 (_ FloatingPoint 8 24))
(declare-const x3 (_ FloatingPoint 8 24))
(declare-const x4 (_ FloatingPoint 8 24))
(declare-const x5 (_ FloatingPoint 8 24))
(declare-const x6 (_ FloatingPoint 8 24))
(declare-const x7 (_ FloatingPoint 8 24))
(declare-const x8 (_ FloatingPoint 8 24))
(declare-const x9 (_ FloatingPoint 8 24))
(declare-const x10 (_ FloatingPoint 8 24))
(declare-const x11 (_ FloatingPoint 8 24))
(declare-const x12 (_ FloatingPoint 8 24))
(declare-const x13 (_ FloatingPoint 8 24))
(declare-const x14 (_ FloatingPoint 8 24))
(assert (fp.isZero (fp.add RNE (fp.abs x12) (fp.sub RNE (fp.add RNE (fp.neg (fp.neg (fp.add RNE (fp.add RNE x0 (fp.mul RNE (fp.sub RNE x6 x3) (fp.neg x2))) (fp.mul RNE x10 (fp.mul RNE (fp.abs x1) (fp.abs x13)))))) (fp.neg (fp.add RNE x11 (fp.mul RNE (fp.abs (fp.add RNE (fp.neg x14) x8)) (fp.neg (fp.sub RNE (fp.abs x0) (fp.mul RNE x9 x1))))))) (fp.sub RNE x2 x3)))))
(check-sat)